c User generated cnf file
p cnf 10 51
-1 10 5 0 
2 6 -7 0 
-3 7 9 0 
3 -2 9 0 
2 10 -10 0 
6 9 -10 0 
1 3 -6 0 
5 -10 9 0 
-9 5 3 0 
10 -4 6 0 
5 -4 9 0 
-9 2 8 0 
-5 9 4 0 
4 2 -8 0 
-5 8 6 0 
-7 3 8 0 
6 -4 7 0 
-3 6 5 0 
-4 10 3 0 
1 -3 10 0 
-7 10 5 0 
1 1 -8 0 
-10 3 8 0 
9 -10 1 0 
1 4 -9 0 
6 -7 4 0 
8 5 -9 0 
2 6 -2 0 
5 -7 4 0 
-4 5 4 0 
-4 9 9 0 
8 7 -3 0 
1 -1 4 0 
1 -8 4 0 
-9 2 3 0 
-2 6 2 0 
6 7 -7 0 
-4 6 7 0 
-8 3 7 0 
-4 8 2 0 
-4 2 5 0 
1 -2 4 0 
5 -1 8 0 
4 6 -3 0 
3 -4 10 0 
4 -7 8 0 
9 -3 5 0 
-3 5 9 0 
9 -2 2 0 
-6 1 10 0 
3 -8 9 0 
